c description: Perfect Matching Principle on 
c generator: CNFgen (0.9.0)
c copyright: (C) 2012-2020 Massimo Lauria <massimo.lauria@uniroma1.it>
c url: https://massimolauria.net/cnfgen
c
p cnf 80 349
-1 -2 0
-1 -3 0
-1 -4 0
-1 -5 0
-2 -3 0
-2 -4 0
-2 -5 0
-3 -4 0
-3 -5 0
-4 -5 0
1 2 3 4 5 0
-1 -6 0
-1 -7 0
-1 -8 0
-1 -9 0
-1 -10 0
-1 -11 0
-6 -7 0
-6 -8 0
-6 -9 0
-6 -10 0
-6 -11 0
-7 -8 0
-7 -9 0
-7 -10 0
-7 -11 0
-8 -9 0
-8 -10 0
-8 -11 0
-9 -10 0
-9 -11 0
-10 -11 0
1 6 7 8 9 10 11 0
-6 -12 0
-6 -13 0
-12 -13 0
6 12 13 0
-12 -14 0
-12 -15 0
-12 -16 0
-12 -17 0
-12 -18 0
-12 -19 0
-14 -15 0
-14 -16 0
-14 -17 0
-14 -18 0
-14 -19 0
-15 -16 0
-15 -17 0
-15 -18 0
-15 -19 0
-16 -17 0
-16 -18 0
-16 -19 0
-17 -18 0
-17 -19 0
-18 -19 0
12 14 15 16 17 18 19 0
-20 -21 0
-20 -22 0
-20 -23 0
-20 -24 0
-21 -22 0
-21 -23 0
-21 -24 0
-22 -23 0
-22 -24 0
-23 -24 0
20 21 22 23 24 0
-25 -26 0
25 26 0
-14 -27 0
14 27 0
-28 -29 0
-28 -30 0
-28 -31 0
-28 -32 0
-29 -30 0
-29 -31 0
-29 -32 0
-30 -31 0
-30 -32 0
-31 -32 0
28 29 30 31 32 0
-33 -34 0
-33 -35 0
-33 -36 0
-34 -35 0
-34 -36 0
-35 -36 0
33 34 35 36 0
0
-2 -20 0
-2 -33 0
-2 -37 0
-2 -38 0
-2 -39 0
-20 -33 0
-20 -37 0
-20 -38 0
-20 -39 0
-33 -37 0
-33 -38 0
-33 -39 0
-37 -38 0
-37 -39 0
-38 -39 0
2 20 33 37 38 39 0
-40 -41 0
-40 -42 0
-41 -42 0
40 41 42 0
-40 -43 0
-40 -44 0
-40 -45 0
-40 -46 0
-40 -47 0
-40 -48 0
-43 -44 0
-43 -45 0
-43 -46 0
-43 -47 0
-43 -48 0
-44 -45 0
-44 -46 0
-44 -47 0
-44 -48 0
-45 -46 0
-45 -47 0
-45 -48 0
-46 -47 0
-46 -48 0
-47 -48 0
40 43 44 45 46 47 48 0
-28 -37 0
-28 -49 0
-28 -50 0
-28 -51 0
-37 -49 0
-37 -50 0
-37 -51 0
-49 -50 0
-49 -51 0
-50 -51 0
28 37 49 50 51 0
-15 -21 0
-15 -52 0
-15 -53 0
-15 -54 0
-21 -52 0
-21 -53 0
-21 -54 0
-52 -53 0
-52 -54 0
-53 -54 0
15 21 52 53 54 0
-52 -55 0
-52 -56 0
-55 -56 0
52 55 56 0
-7 -57 0
7 57 0
-8 -29 0
-8 -41 0
-8 -58 0
-29 -41 0
-29 -58 0
-41 -58 0
8 29 41 58 0
-22 -30 0
-22 -55 0
-30 -55 0
22 30 55 0
-23 -43 0
-23 -59 0
-23 -60 0
-23 -61 0
-43 -59 0
-43 -60 0
-43 -61 0
-59 -60 0
-59 -61 0
-60 -61 0
23 43 59 60 61 0
-16 -31 0
-16 -42 0
-16 -44 0
-16 -57 0
-16 -62 0
-16 -63 0
-16 -64 0
-31 -42 0
-31 -44 0
-31 -57 0
-31 -62 0
-31 -63 0
-31 -64 0
-42 -44 0
-42 -57 0
-42 -62 0
-42 -63 0
-42 -64 0
-44 -57 0
-44 -62 0
-44 -63 0
-44 -64 0
-57 -62 0
-57 -63 0
-57 -64 0
-62 -63 0
-62 -64 0
-63 -64 0
16 31 42 44 57 62 63 64 0
-9 -59 0
-9 -65 0
-59 -65 0
9 59 65 0
-10 -45 0
10 45 0
-66 -67 0
-66 -68 0
-66 -69 0
-67 -68 0
-67 -69 0
-68 -69 0
66 67 68 69 0
-17 -62 0
-17 -66 0
-17 -70 0
-17 -71 0
-62 -66 0
-62 -70 0
-62 -71 0
-66 -70 0
-66 -71 0
-70 -71 0
17 62 66 70 71 0
-13 -38 0
-13 -58 0
-13 -70 0
-13 -72 0
-38 -58 0
-38 -70 0
-38 -72 0
-58 -70 0
-58 -72 0
-70 -72 0
13 38 58 70 72 0
-46 -53 0
-46 -71 0
-46 -73 0
-53 -71 0
-53 -73 0
-71 -73 0
46 53 71 73 0
-49 -60 0
-49 -67 0
-49 -72 0
-60 -67 0
-60 -72 0
-67 -72 0
49 60 67 72 0
-3 -34 0
-3 -50 0
-3 -63 0
-34 -50 0
-34 -63 0
-50 -63 0
3 34 50 63 0
-4 -74 0
4 74 0
-25 -47 0
-25 -75 0
-47 -75 0
25 47 75 0
-24 -39 0
-24 -76 0
-39 -76 0
24 39 76 0
-35 -48 0
-35 -64 0
-35 -65 0
-35 -77 0
-48 -64 0
-48 -65 0
-48 -77 0
-64 -65 0
-64 -77 0
-65 -77 0
35 48 64 65 77 0
-5 -11 0
-5 -18 0
-5 -56 0
-5 -61 0
-5 -68 0
-5 -74 0
-5 -76 0
-11 -18 0
-11 -56 0
-11 -61 0
-11 -68 0
-11 -74 0
-11 -76 0
-18 -56 0
-18 -61 0
-18 -68 0
-18 -74 0
-18 -76 0
-56 -61 0
-56 -68 0
-56 -74 0
-56 -76 0
-61 -68 0
-61 -74 0
-61 -76 0
-68 -74 0
-68 -76 0
-74 -76 0
5 11 18 56 61 68 74 76 0
-26 -51 0
-26 -54 0
-26 -75 0
-26 -78 0
-51 -54 0
-51 -75 0
-51 -78 0
-54 -75 0
-54 -78 0
-75 -78 0
26 51 54 75 78 0
36 0
77 0
-79 -80 0
79 80 0
-32 -69 0
-32 -73 0
-32 -79 0
-69 -73 0
-69 -79 0
-73 -79 0
32 69 73 79 0
-19 -27 0
-19 -78 0
-19 -80 0
-27 -78 0
-27 -80 0
-78 -80 0
19 27 78 80 0